p tw 660 9901 7 
1 8 
1 141 
2 9 
2 10 
2 142 
3 7 
3 10 
3 191 
4 8 
4 9 
4 192 
5 7 
5 9 
5 221 
6 8 
6 10 
6 222 
11 17 
11 18 
11 101 
12 19 
12 20 
12 102 
13 17 
13 20 
13 311 
14 18 
14 19 
14 312 
15 17 
15 19 
15 641 
16 18 
16 20 
16 642 
21 27 
21 28 
21 161 
22 29 
22 30 
22 162 
23 27 
23 30 
23 281 
24 28 
24 29 
24 282 
25 27 
25 29 
25 571 
26 28 
26 30 
26 572 
31 37 
31 38 
31 291 
32 39 
32 40 
32 292 
33 37 
33 40 
33 331 
34 38 
34 39 
34 332 
35 37 
35 39 
35 361 
36 38 
36 40 
36 362 
41 47 
41 48 
41 131 
42 49 
42 50 
42 132 
43 47 
43 50 
43 581 
44 48 
44 49 
44 582 
45 47 
45 49 
45 601 
46 48 
46 50 
46 602 
51 57 
51 58 
51 133 
52 59 
52 60 
52 134 
53 57 
53 60 
53 551 
54 58 
54 59 
54 552 
55 57 
55 59 
55 591 
56 58 
56 60 
56 592 
61 67 
61 68 
61 293 
62 69 
62 70 
62 294 
63 67 
63 70 
63 401 
64 68 
64 69 
64 402 
65 67 
65 69 
65 593 
66 68 
66 70 
66 594 
71 77 
71 78 
71 371 
72 79 
72 80 
72 372 
73 77 
73 80 
73 501 
74 78 
74 79 
74 502 
75 77 
75 79 
75 561 
76 78 
76 80 
76 562 
81 87 
81 88 
81 313 
82 89 
82 90 
82 314 
83 87 
83 90 
83 363 
84 88 
84 89 
84 364 
85 87 
85 89 
85 631 
86 88 
86 90 
86 632 
91 97 
91 98 
91 241 
92 99 
92 100 
92 242 
93 97 
93 100 
93 391 
94 98 
94 99 
94 392 
95 97 
95 99 
95 633 
96 98 
96 100 
96 634 
101 107 
101 108 
102 109 
102 110 
103 107 
103 110 
103 295 
104 108 
104 109 
104 296 
105 107 
105 109 
105 541 
106 108 
106 110 
106 542 
111 117 
111 118 
111 261 
112 119 
112 120 
112 262 
113 117 
113 120 
113 381 
114 118 
114 119 
114 382 
115 117 
115 119 
115 431 
116 118 
116 120 
116 432 
121 127 
121 128 
121 151 
122 129 
122 130 
122 152 
123 127 
123 130 
123 441 
124 128 
124 129 
124 442 
125 127 
125 129 
125 611 
126 128 
126 130 
126 612 
131 137 
131 138 
132 139 
132 140 
133 137 
133 140 
134 138 
134 139 
135 137 
135 139 
135 411 
136 138 
136 140 
136 412 
141 147 
141 148 
142 149 
142 150 
143 147 
143 150 
143 461 
144 148 
144 149 
144 462 
145 147 
145 149 
145 643 
146 148 
146 150 
146 644 
151 157 
151 158 
152 159 
152 160 
153 157 
153 160 
153 211 
154 158 
154 159 
154 212 
155 157 
155 159 
155 341 
156 158 
156 160 
156 342 
161 167 
161 168 
162 169 
162 170 
163 167 
163 170 
163 403 
164 168 
164 169 
164 404 
165 167 
165 169 
165 421 
166 168 
166 170 
166 422 
171 177 
171 178 
171 463 
172 179 
172 180 
172 464 
173 177 
173 180 
173 481 
174 178 
174 179 
174 482 
175 177 
175 179 
175 491 
176 178 
176 180 
176 492 
181 187 
181 188 
181 193 
182 189 
182 190 
182 194 
183 187 
183 190 
183 201 
184 188 
184 189 
184 202 
185 187 
185 189 
185 471 
186 188 
186 190 
186 472 
191 197 
191 198 
192 199 
192 200 
193 197 
193 200 
194 198 
194 199 
195 197 
195 199 
195 251 
196 198 
196 200 
196 252 
201 207 
201 208 
202 209 
202 210 
203 207 
203 210 
203 271 
204 208 
204 209 
204 272 
205 207 
205 209 
205 451 
206 208 
206 210 
206 452 
211 217 
211 218 
212 219 
212 220 
213 217 
213 220 
213 223 
214 218 
214 219 
214 224 
215 217 
215 219 
215 413 
216 218 
216 220 
216 414 
221 227 
221 228 
222 229 
222 230 
223 227 
223 230 
224 228 
224 229 
225 227 
225 229 
225 511 
226 228 
226 230 
226 512 
231 237 
231 238 
231 373 
232 239 
232 240 
232 374 
233 237 
233 240 
233 443 
234 238 
234 239 
234 444 
235 237 
235 239 
235 453 
236 238 
236 240 
236 454 
241 247 
241 248 
242 249 
242 250 
243 247 
243 250 
243 253 
244 248 
244 249 
244 254 
245 247 
245 249 
245 493 
246 248 
246 250 
246 494 
251 257 
251 258 
252 259 
252 260 
253 257 
253 260 
254 258 
254 259 
255 257 
255 259 
255 433 
256 258 
256 260 
256 434 
261 267 
261 268 
262 269 
262 270 
263 267 
263 270 
263 383 
264 268 
264 269 
264 384 
265 267 
265 269 
265 531 
266 268 
266 270 
266 532 
271 277 
271 278 
272 279 
272 280 
273 277 
273 280 
273 521 
274 278 
274 279 
274 522 
275 277 
275 279 
275 533 
276 278 
276 280 
276 534 
281 287 
281 288 
282 289 
282 290 
283 287 
283 290 
283 503 
284 288 
284 289 
284 504 
285 287 
285 289 
285 543 
286 288 
286 290 
286 544 
291 297 
291 298 
292 299 
292 300 
293 297 
293 300 
294 298 
294 299 
295 297 
295 299 
296 298 
296 300 
301 307 
301 308 
301 333 
302 309 
302 310 
302 334 
303 307 
303 310 
303 563 
304 308 
304 309 
304 564 
305 307 
305 309 
305 651 
306 308 
306 310 
306 652 
311 317 
311 318 
312 319 
312 320 
313 317 
313 320 
314 318 
314 319 
315 317 
315 319 
315 351 
316 318 
316 320 
316 352 
321 327 
321 328 
321 483 
322 329 
322 330 
322 484 
323 327 
323 330 
323 583 
324 328 
324 329 
324 584 
325 327 
325 329 
325 621 
326 328 
326 330 
326 622 
331 337 
331 338 
332 339 
332 340 
333 337 
333 340 
334 338 
334 339 
335 337 
335 339 
335 465 
336 338 
336 340 
336 466 
341 347 
341 348 
342 349 
342 350 
343 347 
343 350 
343 565 
344 348 
344 349 
344 566 
345 347 
345 349 
345 595 
346 348 
346 350 
346 596 
351 357 
351 358 
352 359 
352 360 
353 357 
353 360 
353 415 
354 358 
354 359 
354 416 
355 357 
355 359 
355 635 
356 358 
356 360 
356 636 
361 367 
361 368 
362 369 
362 370 
363 367 
363 370 
364 368 
364 369 
365 367 
365 369 
365 623 
366 368 
366 370 
366 624 
371 377 
371 378 
372 379 
372 380 
373 377 
373 380 
374 378 
374 379 
375 377 
375 379 
375 423 
376 378 
376 380 
376 424 
381 387 
381 388 
382 389 
382 390 
383 387 
383 390 
384 388 
384 389 
385 387 
385 389 
385 653 
386 388 
386 390 
386 654 
391 397 
391 398 
392 399 
392 400 
393 397 
393 400 
393 505 
394 398 
394 399 
394 506 
395 397 
395 399 
395 603 
396 398 
396 400 
396 604 
401 407 
401 408 
402 409 
402 410 
403 407 
403 410 
404 408 
404 409 
405 407 
405 409 
405 605 
406 408 
406 410 
406 606 
411 417 
411 418 
412 419 
412 420 
413 417 
413 420 
414 418 
414 419 
415 417 
415 419 
416 418 
416 420 
421 427 
421 428 
422 429 
422 430 
423 427 
423 430 
424 428 
424 429 
425 427 
425 429 
425 485 
426 428 
426 430 
426 486 
431 437 
431 438 
432 439 
432 440 
433 437 
433 440 
434 438 
434 439 
435 437 
435 439 
435 553 
436 438 
436 440 
436 554 
441 447 
441 448 
442 449 
442 450 
443 447 
443 450 
444 448 
444 449 
445 447 
445 449 
445 613 
446 448 
446 450 
446 614 
451 457 
451 458 
452 459 
452 460 
453 457 
453 460 
454 458 
454 459 
455 457 
455 459 
455 535 
456 458 
456 460 
456 536 
461 467 
461 468 
462 469 
462 470 
463 467 
463 470 
464 468 
464 469 
465 467 
465 469 
466 468 
466 470 
471 477 
471 478 
472 479 
472 480 
473 477 
473 480 
473 545 
474 478 
474 479 
474 546 
475 477 
475 479 
475 615 
476 478 
476 480 
476 616 
481 487 
481 488 
482 489 
482 490 
483 487 
483 490 
484 488 
484 489 
485 487 
485 489 
486 488 
486 490 
491 497 
491 498 
492 499 
492 500 
493 497 
493 500 
494 498 
494 499 
495 497 
495 499 
495 573 
496 498 
496 500 
496 574 
501 507 
501 508 
502 509 
502 510 
503 507 
503 510 
504 508 
504 509 
505 507 
505 509 
506 508 
506 510 
511 517 
511 518 
512 519 
512 520 
513 517 
513 520 
513 523 
514 518 
514 519 
514 524 
515 517 
515 519 
515 575 
516 518 
516 520 
516 576 
521 527 
521 528 
522 529 
522 530 
523 527 
523 530 
524 528 
524 529 
525 527 
525 529 
525 655 
526 528 
526 530 
526 656 
531 537 
531 538 
532 539 
532 540 
533 537 
533 540 
534 538 
534 539 
535 537 
535 539 
536 538 
536 540 
541 547 
541 548 
542 549 
542 550 
543 547 
543 550 
544 548 
544 549 
545 547 
545 549 
546 548 
546 550 
551 557 
551 558 
552 559 
552 560 
553 557 
553 560 
554 558 
554 559 
555 557 
555 559 
555 585 
556 558 
556 560 
556 586 
561 567 
561 568 
562 569 
562 570 
563 567 
563 570 
564 568 
564 569 
565 567 
565 569 
566 568 
566 570 
571 577 
571 578 
572 579 
572 580 
573 577 
573 580 
574 578 
574 579 
575 577 
575 579 
576 578 
576 580 
581 587 
581 588 
582 589 
582 590 
583 587 
583 590 
584 588 
584 589 
585 587 
585 589 
586 588 
586 590 
591 597 
591 598 
592 599 
592 600 
593 597 
593 600 
594 598 
594 599 
595 597 
595 599 
596 598 
596 600 
601 607 
601 608 
602 609 
602 610 
603 607 
603 610 
604 608 
604 609 
605 607 
605 609 
606 608 
606 610 
611 617 
611 618 
612 619 
612 620 
613 617 
613 620 
614 618 
614 619 
615 617 
615 619 
616 618 
616 620 
621 627 
621 628 
622 629 
622 630 
623 627 
623 630 
624 628 
624 629 
625 627 
625 629 
625 645 
626 628 
626 630 
626 646 
631 637 
631 638 
632 639 
632 640 
633 637 
633 640 
634 638 
634 639 
635 637 
635 639 
636 638 
636 640 
641 647 
641 648 
642 649 
642 650 
643 647 
643 650 
644 648 
644 649 
645 647 
645 649 
646 648 
646 650 
651 657 
651 658 
652 659 
652 660 
653 657 
653 660 
654 658 
654 659 
655 657 
655 659 
656 658 
656 660 
